2 2147483706 2147483717 2147483720 
5 2147483706 2147483717 2147483720 
8 2147483706 2147483717 2147483720 
11 
18 
19 
22 2147483671 2147483679 2147483694 2147483697 2147483711 2147483714 
23 2147483671 2147483679 2147483694 2147483697 2147483711 2147483714 
24 2147483671 2147483679 2147483694 2147483697 2147483711 2147483714 
25 2147483671 2147483679 
26 2147483671 2147483727 
27 2147483671 2147483679 
32 2147483671 2147483679 2147483727 
49 2147483649 2147483660 2147483661 2147483665 2147483670 2147483674 2147483686 2147483688 2147483698 2147483701 2147483729 2147483731 2147483733 2147483736 2147483737 2147483739 2147483740 2147483741 2147483743 2147483744 2147483745 2147483747 2147483748 2147483749 
50 2147483649 2147483654 2147483655 2147483658 2147483659 2147483660 2147483661 2147483665 2147483670 2147483674 2147483681 2147483682 2147483683 2147483686 2147483688 2147483698 2147483701 2147483704 2147483715 2147483718 2147483729 2147483731 2147483733 2147483736 2147483739 2147483741 2147483743 2147483745 2147483747 2147483749 
51 2147483649 2147483654 2147483655 2147483658 2147483659 2147483660 2147483661 2147483665 2147483670 2147483674 2147483681 2147483682 2147483686 2147483688 2147483698 2147483701 2147483704 2147483715 2147483718 2147483729 2147483731 2147483733 2147483736 2147483739 2147483741 2147483743 2147483745 2147483747 2147483749 
52 2147483649 2147483665 2147483670 2147483674 2147483686 2147483688 2147483726 2147483729 2147483733 2147483736 2147483737 2147483739 2147483741 2147483743 2147483745 2147483747 2147483749 
53 2147483649 2147483654 2147483655 2147483658 2147483659 2147483670 2147483674 2147483681 2147483682 2147483683 2147483704 2147483715 2147483718 2147483726 2147483729 2147483733 2147483736 2147483737 
54 2147483649 2147483670 2147483674 2147483681 2147483682 2147483683 2147483715 2147483729 2147483733 2147483736 2147483739 2147483743 2147483747 
57 2147483649 2147483670 2147483674 2147483681 2147483682 2147483683 2147483704 2147483715 2147483718 2147483726 2147483729 2147483733 2147483736 2147483739 2147483743 2147483747 
61 
127 2147483649 2147483670 2147483674 2147483729 2147483733 2147483736 
128 2147483649 2147483670 2147483674 2147483729 2147483733 2147483736 
129 2147483649 2147483670 2147483674 2147483729 2147483733 2147483736 
130 2147483649 2147483670 2147483674 2147483729 2147483733 2147483736 
131 2147483649 2147483654 2147483655 2147483658 2147483659 2147483660 2147483661 2147483665 2147483670 2147483674 2147483681 2147483682 2147483683 2147483686 2147483688 2147483698 2147483701 2147483704 2147483715 2147483718 2147483729 2147483731 2147483733 2147483736 2147483739 2147483743 2147483747 
132 2147483649 2147483654 2147483655 2147483658 2147483659 2147483660 2147483661 2147483665 2147483670 2147483674 2147483681 2147483682 2147483683 2147483686 2147483688 2147483698 2147483701 2147483704 2147483715 2147483718 2147483729 2147483731 2147483733 2147483736 2147483739 2147483741 2147483743 2147483745 2147483747 2147483749 
133 2147483649 2147483654 2147483655 2147483658 2147483659 2147483660 2147483661 2147483665 2147483670 2147483674 2147483681 2147483682 2147483683 2147483686 2147483688 2147483698 2147483701 2147483704 2147483715 2147483718 2147483729 2147483731 2147483733 2147483736 2147483737 2147483739 2147483740 2147483741 2147483743 2147483744 2147483745 2147483747 2147483748 2147483749 
134 2147483649 2147483654 2147483655 2147483658 2147483659 2147483660 2147483661 2147483665 2147483670 2147483674 2147483681 2147483682 2147483683 2147483686 2147483688 2147483698 2147483701 2147483704 2147483715 2147483718 2147483729 2147483731 2147483733 2147483736 2147483739 2147483743 2147483747 
247 
248 
249 
250 
251 2147483706 2147483717 2147483720 
252 2147483706 2147483717 2147483720 
253 2147483706 2147483717 2147483720 
254 2147483706 2147483717 2147483720 
263 2147483671 
264 2147483671 
265 2147483671 
266 2147483671 
267 2147483671 2147483679 2147483694 2147483697 2147483711 2147483714 
268 2147483671 2147483679 2147483694 2147483697 2147483711 2147483714 
269 2147483671 2147483679 2147483694 2147483697 2147483711 2147483714 
270 2147483671 2147483679 2147483694 2147483697 2147483711 2147483714 
2147483649 2147483654 2147483655 2147483658 2147483659 2147483660 2147483661 2147483665 2147483670 2147483671 2147483674 2147483679 2147483681 2147483682 2147483686 2147483688 2147483694 2147483697 2147483698 2147483701 2147483704 2147483706 2147483711 2147483714 2147483715 2147483717 2147483718 2147483720 2147483729 2147483731 2147483733 2147483736 2147483739 2147483741 2147483743 2147483745 2147483747 2147483749 57 52 49 54 53 127 128 129 130 51 133 134 131 132 50 2147483654 2147483655 2147483658 2147483659 2147483660 2147483661 2147483665 2147483670 2147483671 2147483674 2147483679 2147483681 2147483682 2147483686 2147483688 2147483694 2147483697 2147483698 2147483701 2147483704 2147483706 2147483711 2147483714 2147483715 2147483717 2147483718 2147483720 2147483729 2147483731 2147483733 2147483736 2147483739 2147483741 2147483743 2147483745 2147483747 2147483749 
2147483654 2147483649 2147483649 2147483670 2147483671 2147483674 2147483729 2147483733 53 51 133 134 131 132 50 2147483670 2147483671 2147483674 2147483729 2147483733 
2147483655 2147483649 2147483649 2147483670 2147483671 2147483674 2147483729 2147483733 53 51 133 134 131 132 50 2147483670 2147483671 2147483674 2147483729 2147483733 
2147483658 2147483649 2147483649 2147483670 2147483671 2147483674 2147483729 2147483733 53 51 133 134 131 132 50 2147483670 2147483671 2147483674 2147483729 2147483733 
2147483659 2147483649 2147483649 2147483670 2147483671 2147483674 2147483729 2147483733 53 51 133 134 131 132 50 2147483670 2147483671 2147483674 2147483729 2147483733 
2147483660 2147483649 2147483649 2147483670 2147483671 2147483674 2147483729 2147483733 49 51 133 134 131 132 50 2147483670 2147483671 2147483674 2147483729 2147483733 
2147483661 2147483649 2147483649 2147483670 2147483671 2147483674 2147483729 2147483733 49 51 133 134 131 132 50 2147483670 2147483671 2147483674 2147483729 2147483733 
2147483665 2147483649 2147483649 2147483670 2147483671 2147483674 2147483729 2147483733 2147483737 2147483741 2147483745 2147483749 49 52 51 133 134 131 132 50 2147483670 2147483671 2147483674 2147483729 2147483733 2147483737 2147483741 2147483745 2147483749 
2147483670 2147483649 2147483654 2147483655 2147483658 2147483659 2147483660 2147483661 2147483665 2147483649 2147483654 2147483655 2147483658 2147483659 2147483660 2147483661 2147483665 2147483671 2147483674 2147483679 2147483681 2147483682 2147483683 2147483686 2147483688 2147483694 2147483697 2147483698 2147483701 2147483704 2147483706 2147483711 2147483714 2147483715 2147483717 2147483718 2147483720 2147483729 2147483731 2147483733 2147483736 2147483739 2147483741 2147483743 2147483745 2147483747 2147483749 57 49 52 54 53 127 128 129 130 51 133 134 131 132 50 2147483671 2147483674 2147483679 2147483681 2147483682 2147483683 2147483686 2147483688 2147483694 2147483697 2147483698 2147483701 2147483704 2147483706 2147483711 2147483714 2147483715 2147483717 2147483718 2147483720 2147483729 2147483731 2147483733 2147483736 2147483739 2147483741 2147483743 2147483745 2147483747 2147483749 
2147483671 2147483649 2147483654 2147483655 2147483658 2147483659 2147483660 2147483661 2147483665 2147483670 2147483649 2147483654 2147483655 2147483658 2147483659 2147483660 2147483661 2147483665 2147483670 2147483674 2147483679 2147483681 2147483682 2147483683 2147483686 2147483688 2147483694 2147483697 2147483698 2147483701 2147483704 2147483706 2147483711 2147483714 2147483715 2147483717 2147483718 2147483720 2147483729 2147483731 2147483733 2147483736 2147483739 2147483741 2147483743 2147483745 2147483747 2147483749 27 22 25 32 26 263 264 265 266 24 23 269 270 267 268 2147483674 2147483679 2147483681 2147483682 2147483683 2147483686 2147483688 2147483694 2147483697 2147483698 2147483701 2147483704 2147483706 2147483711 2147483714 2147483715 2147483717 2147483718 2147483720 2147483729 2147483731 2147483733 2147483736 2147483739 2147483741 2147483743 2147483745 2147483747 2147483749 
2147483674 2147483649 2147483654 2147483655 2147483658 2147483659 2147483660 2147483661 2147483665 2147483670 2147483671 2147483649 2147483654 2147483655 2147483658 2147483659 2147483660 2147483661 2147483665 2147483670 2147483671 2147483679 2147483681 2147483682 2147483683 2147483686 2147483688 2147483694 2147483697 2147483698 2147483701 2147483704 2147483706 2147483711 2147483714 2147483715 2147483717 2147483718 2147483720 2147483729 2147483731 2147483733 2147483736 2147483739 2147483743 2147483747 128 49 52 54 57 53 127 129 130 51 133 134 131 132 50 2147483679 2147483681 2147483682 2147483683 2147483686 2147483688 2147483694 2147483697 2147483698 2147483701 2147483704 2147483706 2147483711 2147483714 2147483715 2147483717 2147483718 2147483720 2147483729 2147483731 2147483733 2147483736 2147483739 2147483743 2147483747 
2147483679 2147483649 2147483670 2147483671 2147483674 2147483649 2147483670 2147483671 2147483674 2147483729 2147483736 2147483739 2147483743 2147483747 22 25 27 32 24 23 269 270 267 268 2147483729 2147483736 2147483739 2147483743 2147483747 
2147483681 2147483649 2147483670 2147483671 2147483674 2147483649 2147483670 2147483671 2147483674 2147483682 2147483683 2147483729 2147483736 53 54 57 51 133 134 131 132 50 2147483682 2147483683 2147483729 2147483736 
2147483682 2147483649 2147483670 2147483671 2147483674 2147483681 2147483649 2147483670 2147483671 2147483674 2147483681 2147483683 2147483729 2147483736 57 54 53 51 133 134 131 132 50 2147483683 2147483729 2147483736 
2147483683 2147483670 2147483671 2147483674 2147483681 2147483682 2147483670 2147483671 2147483674 2147483681 2147483682 2147483729 2147483736 54 57 53 133 134 131 132 50 2147483729 2147483736 
2147483686 2147483649 2147483670 2147483671 2147483674 2147483649 2147483670 2147483671 2147483674 2147483688 2147483729 2147483736 49 52 51 133 134 131 132 50 2147483688 2147483729 2147483736 
2147483688 2147483649 2147483670 2147483671 2147483674 2147483686 2147483649 2147483670 2147483671 2147483674 2147483686 2147483729 2147483736 49 52 51 133 134 131 132 50 2147483729 2147483736 
2147483694 2147483649 2147483670 2147483671 2147483674 2147483649 2147483670 2147483671 2147483674 2147483729 2147483733 22 24 23 269 270 267 268 2147483729 2147483733 
2147483697 2147483649 2147483670 2147483671 2147483674 2147483649 2147483670 2147483671 2147483674 2147483729 2147483733 22 24 23 269 270 267 268 2147483729 2147483733 
2147483698 2147483649 2147483670 2147483671 2147483674 2147483649 2147483670 2147483671 2147483674 2147483729 2147483733 49 51 133 134 131 132 50 2147483729 2147483733 
2147483701 2147483649 2147483670 2147483671 2147483674 2147483649 2147483670 2147483671 2147483674 2147483729 2147483733 49 51 133 134 131 132 50 2147483729 2147483733 
2147483704 2147483649 2147483670 2147483671 2147483674 2147483649 2147483670 2147483671 2147483674 2147483729 2147483733 57 53 51 133 134 131 132 50 2147483729 2147483733 
2147483706 2147483649 2147483670 2147483671 2147483674 2147483649 2147483670 2147483671 2147483674 2147483729 2147483733 2 5 8 253 254 251 252 2147483729 2147483733 
2147483711 2147483649 2147483670 2147483671 2147483674 2147483649 2147483670 2147483671 2147483674 2147483729 2147483733 22 24 23 269 270 267 268 2147483729 2147483733 
2147483714 2147483649 2147483670 2147483671 2147483674 2147483649 2147483670 2147483671 2147483674 2147483729 2147483733 22 24 23 269 270 267 268 2147483729 2147483733 
2147483715 2147483649 2147483670 2147483671 2147483674 2147483649 2147483670 2147483671 2147483674 2147483729 2147483733 54 57 53 51 133 134 131 132 50 2147483729 2147483733 
2147483717 2147483649 2147483670 2147483671 2147483674 2147483649 2147483670 2147483671 2147483674 2147483729 2147483733 2 5 8 253 254 251 252 2147483729 2147483733 
2147483718 2147483649 2147483670 2147483671 2147483674 2147483649 2147483670 2147483671 2147483674 2147483729 2147483733 57 53 51 133 134 131 132 50 2147483729 2147483733 
2147483720 2147483649 2147483670 2147483671 2147483674 2147483649 2147483670 2147483671 2147483674 2147483729 2147483733 2 5 8 253 254 251 252 2147483729 2147483733 
2147483726 2147483727 2147483737 53 52 57 2147483727 2147483737 
2147483727 2147483726 2147483726 32 26 
2147483729 2147483649 2147483654 2147483655 2147483658 2147483659 2147483660 2147483661 2147483665 2147483670 2147483671 2147483674 2147483679 2147483681 2147483682 2147483683 2147483686 2147483688 2147483694 2147483697 2147483698 2147483701 2147483704 2147483706 2147483711 2147483714 2147483715 2147483717 2147483718 2147483720 2147483649 2147483654 2147483655 2147483658 2147483659 2147483660 2147483661 2147483665 2147483670 2147483671 2147483674 2147483679 2147483681 2147483682 2147483683 2147483686 2147483688 2147483694 2147483697 2147483698 2147483701 2147483704 2147483706 2147483711 2147483714 2147483715 2147483717 2147483718 2147483720 2147483731 2147483733 2147483736 2147483739 2147483743 2147483747 54 57 127 49 52 53 128 129 130 51 133 134 131 132 50 2147483731 2147483733 2147483736 2147483739 2147483743 2147483747 
2147483731 2147483649 2147483670 2147483671 2147483674 2147483729 2147483649 2147483670 2147483671 2147483674 2147483729 2147483733 2147483736 133 49 51 134 131 132 50 2147483733 2147483736 
2147483733 2147483649 2147483654 2147483655 2147483658 2147483659 2147483660 2147483661 2147483665 2147483670 2147483671 2147483674 2147483694 2147483697 2147483698 2147483701 2147483704 2147483706 2147483711 2147483714 2147483715 2147483717 2147483718 2147483720 2147483729 2147483731 2147483649 2147483654 2147483655 2147483658 2147483659 2147483660 2147483661 2147483665 2147483670 2147483671 2147483674 2147483694 2147483697 2147483698 2147483701 2147483704 2147483706 2147483711 2147483714 2147483715 2147483717 2147483718 2147483720 2147483729 2147483731 2147483737 2147483740 2147483741 2147483744 2147483745 2147483748 2147483749 49 52 54 57 53 127 128 129 130 51 133 134 131 132 50 2147483737 2147483740 2147483741 2147483744 2147483745 2147483748 2147483749 
2147483736 2147483649 2147483670 2147483671 2147483674 2147483679 2147483681 2147483682 2147483683 2147483686 2147483688 2147483729 2147483731 2147483649 2147483670 2147483671 2147483674 2147483679 2147483681 2147483682 2147483683 2147483686 2147483688 2147483729 2147483731 2147483739 2147483743 2147483747 53 49 52 54 57 127 128 129 130 51 133 134 131 132 50 2147483739 2147483743 2147483747 
2147483737 2147483665 2147483726 2147483733 2147483665 2147483726 2147483733 49 52 53 133 
2147483739 2147483649 2147483670 2147483671 2147483674 2147483679 2147483729 2147483736 2147483649 2147483670 2147483671 2147483674 2147483679 2147483729 2147483736 2147483743 2147483747 49 52 54 57 51 133 134 131 132 50 2147483743 2147483747 
2147483740 2147483733 2147483733 49 133 
2147483741 2147483649 2147483665 2147483670 2147483671 2147483733 2147483649 2147483665 2147483670 2147483671 2147483733 49 52 51 133 132 50 
2147483743 2147483649 2147483670 2147483671 2147483674 2147483679 2147483729 2147483736 2147483739 2147483649 2147483670 2147483671 2147483674 2147483679 2147483729 2147483736 2147483739 2147483747 49 52 54 57 51 133 134 131 132 50 2147483747 
2147483744 2147483733 2147483733 49 133 
2147483745 2147483649 2147483665 2147483670 2147483671 2147483733 2147483649 2147483665 2147483670 2147483671 2147483733 49 52 51 133 132 50 
2147483747 2147483649 2147483670 2147483671 2147483674 2147483679 2147483729 2147483736 2147483739 2147483743 2147483649 2147483670 2147483671 2147483674 2147483679 2147483729 2147483736 2147483739 2147483743 49 52 54 57 51 133 134 131 132 50 
2147483748 2147483733 2147483733 49 133 
2147483749 2147483649 2147483665 2147483670 2147483671 2147483733 2147483649 2147483665 2147483670 2147483671 2147483733 49 52 51 133 132 50 
